examples/lp/run.out
Problem:    
Rows:       89
Columns:    67 (30 integer, 30 binary)
Non-zeros:  288
Status:     INTEGER OPTIMAL
Objective:  obj = 3.133333333 (MAXimum)

   No.   Row name        Activity     Lower bound   Upper bound
------ ------------    ------------- ------------- -------------
     1 x_min               -0.133333                           0 
     2 y_min               -0.333333                           0 
     3 z_min                       0                           0 
     4 x_flow                      0             0             = 
     5 y_flow                      0             0             = 
     6 z_flow                      0             0             = 
     7 x_in_r1                     0                           1 
     8 x_in_r2                     1                           1 
     9 x_in_r3                     1                           1 
    10 x_in_r4                     1                           1 
    11 x_out_r1                    1                           1 
    12 x_out_r2                    1                           1 
    13 x_out_r3                    1                           1 
    14 x_out_r4                    0                           1 
    15 y_in_r1                     1                           1 
    16 y_in_r2                     1                           1 
    17 y_in_r3                     0                           1 
    18 y_in_r4                     0                           1 
    19 y_out_r1                    0                           1 
    20 y_out_r2                    1                           1 
    21 y_out_r3                    0                           1 
    22 y_out_r4                    1                           1 
    23 z_in_r1                     0                           1 
    24 z_in_r2                     0                           1 
    25 z_in_r3                     0                           1 
    26 z_in_r4                     1                           1 
    27 z_out_r1                    0                           1 
    28 z_out_r2                    0                           1 
    29 z_out_r3                    1                           1 
    30 z_out_r4                    0                           1 
    31 x_in_out_r1                -1            -1             = 
    32 x_in_out_r2                 0             0             = 
    33 x_in_out_r3                 0             0             = 
    34 x_in_out_r4                 1             1             = 
    35 y_in_out_r1                 1             1             = 
    36 y_in_out_r2                 0             0             = 
    37 y_in_out_r3                 0             0             = 
    38 y_in_out_r4                -1            -1             = 
    39 z_in_out_r1                 0             0             = 
    40 z_in_out_r2                 0             0             = 
    41 z_in_out_r3                -1            -1             = 
    42 z_in_out_r4                 1             1             = 
    43 x_capacity_r1
                                   0             0             = 
    44 x_capacity_r2
                                   0             0             = 
    45 x_capacity_r3
                                   0             0             = 
    46 x_capacity_r4
                                   0             0             = 
    47 y_capacity_r1
                                   0             0             = 
    48 y_capacity_r2
                                   0             0             = 
    49 y_capacity_r3
                                   0             0             = 
    50 y_capacity_r4
                                   0             0             = 
    51 z_capacity_r1
                                   0             0             = 
    52 z_capacity_r2
                                   0             0             = 
    53 z_capacity_r3
                                   0             0             = 
    54 z_capacity_r4
                                   0             0             = 
    55 capacity_r4_r3_eth2
                                  10                          10 
    56 capacity_r2_r1_eth0
                                   2                           3 
    57 capacity_r3_r1_eth1
                                   8                          10 
    58 capacity_r4_r2_eth2
                                  10                          10 
    59 capacity_r3_r2_eth1
                                   8                           8 
    60 x_capacity_r3_r4_eth1
                                   0                           0 
    61 x_capacity_r4_r3_eth2
                                   0                           0 
    62 x_capacity_r1_r2_eth0
                                   0                           0 
    63 x_capacity_r2_r1_eth0
                                   0                           0 
    64 x_capacity_r1_r3_eth0
                                  -2                           0 
    65 x_capacity_r3_r1_eth1
                                   0                           0 
    66 x_capacity_r2_r4_eth0
                                  -2                           0 
    67 x_capacity_r4_r2_eth2
                                   0                           0 
    68 x_capacity_r2_r3_eth1
                                   0                           0 
    69 x_capacity_r3_r2_eth1
                                   0                           0 
    70 y_capacity_r3_r4_eth1
                                   0                           0 
    71 y_capacity_r4_r3_eth2
                                   0                           0 
    72 y_capacity_r1_r2_eth0
                                   0                           0 
    73 y_capacity_r2_r1_eth0
                                  -1                           0 
    74 y_capacity_r1_r3_eth0
                                   0                           0 
    75 y_capacity_r3_r1_eth1
                                   0                           0 
    76 y_capacity_r2_r4_eth0
                                   0                           0 
    77 y_capacity_r4_r2_eth2
                                  -8                           0 
    78 y_capacity_r2_r3_eth1
                                   0                           0 
    79 y_capacity_r3_r2_eth1
                                   0                           0 
    80 z_capacity_r3_r4_eth1
                                   0                           0 
    81 z_capacity_r4_r3_eth2
                                   0                           0 
    82 z_capacity_r1_r2_eth0
                                   0                           0 
    83 z_capacity_r2_r1_eth0
                                   0                           0 
    84 z_capacity_r1_r3_eth0
                                   0                           0 
    85 z_capacity_r3_r1_eth1
                                   0                           0 
    86 z_capacity_r2_r4_eth0
                                   0                           0 
    87 z_capacity_r4_r2_eth2
                                   0                           0 
    88 z_capacity_r2_r3_eth1
                                   0                           0 
    89 z_capacity_r3_r2_eth1
                                   0                           0 

   No. Column name       Activity     Lower bound   Upper bound
------ ------------    ------------- ------------- -------------
     1 min_r                0.666667             0               
     2 x                         0.8             0             1 
     3 y                           1             0             1 
     4 z                    0.666667             0             1 
     5 lambda_x                    8             0            10 
     6 lambda_y                    2             0             2 
     7 lambda_z                   10             0            15 
     8 x_r2_r1_eth0 *              0             0             1 
     9 x_r3_r1_eth1 *              0             0             1 
    10 x_r1_r2_eth0 *              0             0             1 
    11 x_r4_r2_eth2 *              0             0             1 
    12 x_r3_r2_eth1 *              1             0             1 
    13 x_r4_r3_eth2 *              0             0             1 
    14 x_r1_r3_eth0 *              1             0             1 
    15 x_r2_r3_eth1 *              0             0             1 
    16 x_r3_r4_eth1 *              0             0             1 
    17 x_r2_r4_eth0 *              1             0             1 
    18 y_r2_r1_eth0 *              1             0             1 
    19 y_r3_r1_eth1 *              0             0             1 
    20 y_r1_r2_eth0 *              0             0             1 
    21 y_r4_r2_eth2 *              1             0             1 
    22 y_r3_r2_eth1 *              0             0             1 
    23 y_r4_r3_eth2 *              0             0             1 
    24 y_r1_r3_eth0 *              0             0             1 
    25 y_r2_r3_eth1 *              0             0             1 
    26 y_r3_r4_eth1 *              0             0             1 
    27 y_r2_r4_eth0 *              0             0             1 
    28 z_r2_r1_eth0 *              0             0             1 
    29 z_r3_r1_eth1 *              0             0             1 
    30 z_r1_r2_eth0 *              0             0             1 
    31 z_r4_r2_eth2 *              0             0             1 
    32 z_r3_r2_eth1 *              0             0             1 
    33 z_r4_r3_eth2 *              0             0             1 
    34 z_r1_r3_eth0 *              0             0             1 
    35 z_r2_r3_eth1 *              0             0             1 
    36 z_r3_r4_eth1 *              1             0             1 
    37 z_r2_r4_eth0 *              0             0             1 
    38 x_cap_r2_r1_eth0
                                   0             0               
    39 x_cap_r3_r1_eth1
                                   0             0               
    40 x_cap_r1_r2_eth0
                                   0             0               
    41 x_cap_r1_r3_eth0
                                   8             0               
    42 x_cap_r4_r2_eth2
                                   0             0               
    43 x_cap_r3_r2_eth1
                                   8             0               
    44 x_cap_r2_r4_eth0
                                   8             0               
    45 x_cap_r2_r3_eth1
                                   0             0               
    46 x_cap_r4_r3_eth2
                                   0             0               
    47 x_cap_r3_r4_eth1
                                   0             0               
    48 y_cap_r2_r1_eth0
                                   2             0               
    49 y_cap_r3_r1_eth1
                                   0             0               
    50 y_cap_r1_r2_eth0
                                   0             0               
    51 y_cap_r1_r3_eth0
                                   0             0               
    52 y_cap_r4_r2_eth2
                                   2             0               
    53 y_cap_r3_r2_eth1
                                   0             0               
    54 y_cap_r2_r4_eth0
                                   0             0               
    55 y_cap_r2_r3_eth1
                                   0             0               
    56 y_cap_r4_r3_eth2
                                   0             0               
    57 y_cap_r3_r4_eth1
                                   0             0               
    58 z_cap_r2_r1_eth0
                                   0             0               
    59 z_cap_r3_r1_eth1
                                   0             0               
    60 z_cap_r1_r2_eth0
                                   0             0               
    61 z_cap_r1_r3_eth0
                                   0             0               
    62 z_cap_r4_r2_eth2
                                   0             0               
    63 z_cap_r3_r2_eth1
                                   0             0               
    64 z_cap_r2_r4_eth0
                                   0             0               
    65 z_cap_r2_r3_eth1
                                   0             0               
    66 z_cap_r4_r3_eth2
                                   0             0               
    67 z_cap_r3_r4_eth1
                                  10             0               

Integer feasibility conditions:

KKT.PE: max.abs.err = 0.00e+00 on row 0
        max.rel.err = 0.00e+00 on row 0
        High quality

KKT.PB: max.abs.err = 4.44e-16 on row 47
        max.rel.err = 4.44e-16 on row 47
        High quality

End of output
